002 003 004 005 005 006 005 006 007 006 005 006 006 005 003 005 006 013 009 011 009 011 018 021 015 012 021 018 016 021 013
002 003 004 005 004 006 005 005 006 004 006 006 004 005 004 008 006 014 009 009 006 008 016 012 012 015 017 020 019 025 022
002 001 002 005 005 005 005 006 004 003 003 004 005 007 006 010 008 013 011 006 007 008 014 017 010 015 017 017 020 031 024
002 003 002 003 004 004 003 003 003 004 004 003 005 003 006 011 011 014 011 010 015 012 012 012 011 015 017 018 024 030 021
002 002 003 003 004 006 005 003 002 003 003 006 004 008 005 009 012 012 013 021 007 013 010 011 014 025 020 019 022 018 018
001 001 002 003 006 004 004 002 003 003 002 006 004 009 006 015 013 016 018 018 014 010 015 011 010 011 020 020 025 023 021
001 001 002 004 003 003 003 002 002 002 003 003 004 007 013 013 012 020 010 010 012 011 010 008 011 015 017 019 021 024 017
001 002 002 003 003 003 002 002 001 002 003 003 003 006 010 008 011 017 021 009 011 009 006 016 015 014 015 015 018 022 020
001 001 001 002 003 002 002 002 002 002 003 003 005 004 006 008 011 015 013 010 014 013 012 017 015 017 014 017 016 018 023
001 001 002 002 003 002 002 002 002 003 004 004 007 007 009 013 013 016 013 012 012 017 006 021 013 016 017 019 014 024 020
001 001 001 002 002 002 002 003 002 001 002 003 008 006 010 012 016 011 016 010 009 019 009 016 012 014 012 021 014 016 018
001 000 001 002 001 002 002 002 002 002 002 003 005 005 008 011 013 013 017 011 012 017 010 010 012 012 010 013 015 011 020
000 001 001 001 002 002 002 002 001 002 002 003 005 006 006 010 009 007 009 015 017 008 008 008 010 012 011 013 016 013 020
001 001 001 001 002 002 002 003 003 002 002 002 003 004 005 010 008 004 008 012 011 011 007 007 009 008 011 012 014 013 017
000 001 000 001 001 001 002 002 002 002 002 002 003 005 005 006 005 006 006 011 012 008 006 006 007 006 009 012 011 016 013
000 000 001 001 001 001 002 001 003 002 001 003 004 005 006 005 005 007 007 007 006 009 005 006 006 006 006 011 015 008 013
000 001 001 001 000 001 001 002 002 002 001 002 004 003 005 004 005 005 003 004 006 006 006 004 004 006 006 006 009 010 010
000 001 001 001 001 001 001 002 001 001 001 002 004 004 003 003 004 004 006 005 006 005 004 004 003 006 005 005 007 008 008
001 001 001 000 001 001 001 001 002 002 002 002 004 004 003 003 003 004 005 003 004 004 003 002 004 004 004 005 006 006 006
001 001 000 001 001 001 001 001 001 001 003 003 003 004 003 003 004 003 003 002 003 003 004 003 002 003 003 004 004 006 006
001 000 001 001 001 001 001 001 001 002 002 003 004 005 004 004 004 005 003 002 002 002 002 003 002 003 003 004 004 005 005
000 000 000 001 001 001 001 001 001 002 002 003 005 004 003 004 004 004 003 002 002 002 002 003 001 002 003 004 004 004 004
000 000 000 001 000 001 001 001 001 001 002 003 005 004 004 004 004 003 003 002 002 002 003 003 001 001 -99 -99 -99 003 003
000 000 001 000 000 001 001 001 001 002 002 004 005 006 004 005 004 004 003 002 002 002 003 002 001 001 -99 -99 -99 002 002
000 000 000 000 000 000 000 001 000 001 002 002 002 003 003 004 006 004 003 002 002 001 002 002 001 -99 -99 -99 -99 001 001
000 000 000 000 000 000 000 001 001 002 002 003 002 003 003 003 006 004 003 003 002 001 002 002 -99 -99 -99 -99 -99 001 001
000 000 000 000 000 000 000 001 001 002 001 002 003 001 004 003 004 004 004 005 004 002 003 003 -99 -99 -99 -99 -99 001 001
000 000 000 000 000 000 000 001 001 001 002 002 001 002 004 004 005 004 004 006 003 002 004 004 -99 -99 -99 -99 -99 001 001
000 000 000 000 000 000 000 000 001 001 002 003 003 002 004 004 005 005 004 004 004 004 006 003 004 003 003 -99 -99 002 002
000 000 000 000 000 000 000 000 001 001 002 002 004 003 003 004 006 006 005 003 005 003 004 003 004 003 002 -99 -99 001 002
000 000 000 000 000 000 000 000 000 001 002 002 004 004 005 005 006 004 007 003 004 007 004 004 004 002 002 -99 -99 -99 001
000 000 000 000 000 000 000 000 000 001 001 002 006 006 007 008 004 010 007 005 007 005 004 005 004 002 003 002 001 001 001
000 000 000 000 000 000 000 000 000 001 001 002 005 004 005 008 006 010 009 017 011 006 004 004 004 002 003 002 001 001 001
000 000 000 000 000 000 000 000 000 000 000 003 003 004 006 011 006 008 007 015 010 006 005 005 005 004 004 002 002 001 000
000 000 000 000 000 000 000 000 000 000 000 001 002 003 005 006 008 005 006 008 009 008 006 005 006 006 004 003 002 001 000
000 000 000 000 000 000 000 000 000 000 000 001 003 003 005 004 005 005 004 007 007 011 007 004 006 004 004 003 002 001 001
000 000 000 000 000 000 000 000 000 000 000 000 002 002 003 003 006 005 004 006 009 012 010 009 006 005 007 004 003 002 002
000 000 000 000 000 000 000 000 000 000 000 000 001 002 002 003 005 004 002 005 010 012 010 012 024 008 006 003 003 003 003
000 000 000 000 000 000 -99 000 -99 000 000 000 001 002 002 003 003 003 002 003 006 010 013 012 019 010 007 008 006 003 005
000 000 000 000 000 -99 -99 -99 -99 000 000 000 001 001 002 003 002 001 001 003 005 004 011 014 010 010 007 008 007 004 004
000 000 000 000 -99 -99 -99 -99 000 000 000 000 000 000 000 001 001 002 004 005 004 005 006 005 013 006 005 006 006 004 004
000 000 -99 000 000 000 000 000 000 000 000 000 000 000 000 000 000 001 005 004 004 008 007 005 010 006 003 004 004 005 004
000 000 -99 -99 000 000 000 000 000 000 000 000 000 000 000 000 000 000 004 003 006 007 009 005 006 004 003 003 003 004 003
000 000 -99 -99 -99 000 000 -99 -99 -99 000 000 000 000 000 000 000 001 002 004 004 006 007 007 005 003 003 002 003 003 003
000 000 -99 -99 000 -99 -99 -99 -99 000 000 000 000 000 000 000 000 001 002 003 002 003 004 003 002 002 002 002 002 002 003
000 -99 -99 -99 -99 -99 -99 -99 -99 000 000 000 000 000 000 000 001 001 001 001 002 002 001 001 001 001 001 001 002 003 004
000 -99 -99 -99 -99 -99 -99 -99 -99 000 000 000 000 000 000 000 001 001 001 001 001 001 000 000 000 000 000 001 001 003 003
-99 -99 -99 -99 -99 -99 -99 -99 000 000 000 -99 -99 000 000 001 001 000 000 001 001 000 000 000 000 000 000 000 001 002 002
-99 -99 -99 -99 -99 -99 -99 -99 -99 -99 -99 -99 000 000 001 003 001 000 000 000 000 000 000 000 000 000 000 000 000 001 001
-99 -99 -99 -99 -99 -99 -99 -99 -99 -99 -99 000 000 000 002 004 002 000 000 000 000 000 000 000 000 000 000 000 000 000 000
-99 -99 -99 -99 -99 -99 -99 -99 -99 -99 -99 000 000 001 003 002 000 000 000 000 000 000 000 -99 000 000 000 000 000 000 000
-99 -99 -99 -99 -99 -99 -99 -99 -99 -99 -99 000 000 000 001 000 000 000 000 000 000 000 000 -99 -99 000 -99 -99 -99 -99 000
-99 -99 -99 -99 -99 -99 -99 -99 -99 -99 -99 -99 000 000 001 -99 000 000 000 -99 000 000 -99 -99 -99 -99 -99 -99 -99 -99 -99
-99 -99 -99 -99 -99 -99 -99 -99 -99 -99 -99 -99 -99 -99 -99 -99 -99 000 -99 000 -99 000 -99 -99 -99 -99 -99 -99 -99 -99 -99
-99 -99 -99 -99 -99 -99 -99 -99 -99 -99 -99 -99 -99 -99 -99 -99 -99 -99 -99 -99 -99 -99 -99 -99 -99 -99 -99 -99 -99 -99 -99
